data/lp_files/pEFS/43_7.lp
\ Model foo
\ LP format - for model browsing. Use MPS format to capture full model detail.
Minimize
  z
Subject To
 allocateEach[1]: x[1,1] + x[2,1] + x[3,1] = 1
 allocateEach[2]: x[1,2] + x[2,2] + x[3,2] = 1
 allocateEach[3]: x[1,3] + x[2,3] + x[3,3] = 1
 allocateAllCash: cashProportion[1] + cashProportion[2] + cashProportion[3]
   = 1
 findWorstP[1,2]: z + 0.1994415636218588 cashProportion[1]
   - 0.1994415636218588 cashProportion[2] + 0.3163808004254753 x[1,1]
   + 0.291915968621194 x[1,2] + 0.1922616673314719 x[1,3]
   - 0.3163808004254753 x[2,1] - 0.291915968621194 x[2,2]
   - 0.1922616673314719 x[2,3] >= 0
 findWorstP[1,3]: z + 0.1994415636218588 cashProportion[1]
   - 0.1994415636218588 cashProportion[3] + 0.3163808004254753 x[1,1]
   + 0.291915968621194 x[1,2] + 0.1922616673314719 x[1,3]
   - 0.3163808004254753 x[3,1] - 0.291915968621194 x[3,2]
   - 0.1922616673314719 x[3,3] >= 0
 findWorstP[2,1]: z - 0.2583979328165375 cashProportion[1]
   + 0.2583979328165375 cashProportion[2] - 0.0110249784668389 x[1,1]
   - 0.3727820844099914 x[1,2] - 0.3577950043066322 x[1,3]
   + 0.0110249784668389 x[2,1] + 0.3727820844099914 x[2,2]
   + 0.3577950043066322 x[2,3] >= 0
 findWorstP[2,3]: z + 0.2583979328165375 cashProportion[2]
   - 0.2583979328165375 cashProportion[3] + 0.0110249784668389 x[2,1]
   + 0.3727820844099914 x[2,2] + 0.3577950043066322 x[2,3]
   - 0.0110249784668389 x[3,1] - 0.3727820844099914 x[3,2]
   - 0.3577950043066322 x[3,3] >= 0
 findWorstP[3,1]: z - 0.2919708029197081 cashProportion[1]
   + 0.2919708029197081 cashProportion[3] - 0.1764963503649635 x[1,1]
   - 0.3109002433090024 x[1,2] - 0.220632603406326 x[1,3]
   + 0.1764963503649635 x[3,1] + 0.3109002433090024 x[3,2]
   + 0.220632603406326 x[3,3] >= 0
 findWorstP[3,2]: z - 0.2919708029197081 cashProportion[2]
   + 0.2919708029197081 cashProportion[3] - 0.1764963503649635 x[2,1]
   - 0.3109002433090024 x[2,2] - 0.220632603406326 x[2,3]
   + 0.1764963503649635 x[3,1] + 0.3109002433090024 x[3,2]
   + 0.220632603406326 x[3,3] >= 0
Bounds
 z <= 1
 -infinity <= cashProportion[1] <= 1
 -infinity <= cashProportion[2] <= 1
 -infinity <= cashProportion[3] <= 1
Binaries
 x[1,1] x[1,2] x[1,3] x[2,1] x[2,2] x[2,3] x[3,1] x[3,2] x[3,3]
End
